<number of tasks>
100

<cycle time>
1000

<order strength>
0.599


<task times>
1 551
2 405
3 454
4 407
5 525
6 646
7 413
8 520
9 474
10 589
11 761
12 569
13 670
14 644
15 270
16 401
17 587
18 480
19 729
20 565
21 393
22 894
23 401
24 484
25 741
26 665
27 544
28 407
29 753
30 581
31 456
32 500
33 509
34 475
35 470
36 647
37 609
38 520
39 430
40 366
41 586
42 281
43 689
44 449
45 449
46 426
47 306
48 437
49 629
50 547
51 344
52 630
53 493
54 499
55 408
56 241
57 407
58 458
59 255
60 568
61 301
62 507
63 498
64 367
65 670
66 606
67 530
68 649
69 431
70 473
71 464
72 533
73 397
74 649
75 602
76 384
77 550
78 283
79 627
80 702
81 475
82 682
83 449
84 341
85 386
86 725
87 372
88 585
89 709
90 758
91 510
92 348
93 292
94 625
95 367
96 434
97 399
98 480
99 503
100 607

<precedence relations>
1,44
2,44
3,44
4,15
5,72
6,93
7,8
7,9
7,10
7,11
7,12
7,13
8,44
9,44
10,15
11,15
12,15
13,14
13,16
13,17
13,30
14,44
15,18
15,19
15,20
15,21
15,22
15,23
15,24
16,72
17,25
17,32
17,47
18,44
19,82
20,30
21,26
21,27
21,31
21,32
21,41
21,42
21,43
22,26
22,27
22,28
22,42
22,45
22,47
23,26
23,27
23,35
23,40
24,28
24,29
24,30
25,26
25,37
26,44
27,44
28,72
29,72
30,31
30,32
30,33
30,34
30,35
30,36
31,44
32,72
33,38
33,39
34,40
34,41
34,42
35,59
36,37
36,43
37,44
38,44
39,93
40,60
40,65
41,44
41,45
41,47
42,46
42,61
42,73
42,74
43,46
43,47
43,62
43,70
43,74
44,48
44,49
44,50
44,51
44,52
44,53
44,54
44,55
45,59
45,60
45,62
45,66
46,54
46,63
46,65
47,54
47,56
48,93
49,58
49,59
50,56
50,60
50,70
50,71
51,72
51,73
53,72
54,82
55,57
55,59
56,72
57,63
57,84
58,61
58,62
58,64
59,81
60,74
61,93
62,65
62,68
62,73
63,66
63,67
64,69
64,70
64,71
65,72
66,82
67,82
68,72
69,73
69,80
70,72
70,73
71,74
72,75
72,76
72,77
72,78
72,79
72,80
72,81
73,93
74,81
75,82
78,83
78,84
80,83
80,84
81,83
82,85
82,86
82,87
82,88
82,89
82,90
82,91
82,92
83,93
84,94
87,100
88,100
93,95
93,96
93,97
93,98
93,99
94,100

<end>
